\ This file was automatically generated by Zimpl
\ set rows := {1 .. 5};
\ set cols := {1 .. 3};
\ param b[cols] := <1> 15, <2> 15, <3> 15;
\ param c[rows * cols] :=         |  1,  2,  3 |     | 1 |  6, 10,  1 |     | 2 | 12, 12,  5 |     | 3 | 15,  4,  3 |     | 4 |
\  10,  3,  9 |     | 5 |  8,  9,  5 |;
\ param a[rows * cols] :=         |  1,  2,  3 |     | 1 |  5,  7,  2 |     | 2 | 14,  8,  7 |     | 3 | 10,  6, 12 |     | 4 |
\   8,  4, 15 |     | 5 |  6, 12,  5 |;
\ var x[rows * cols] binary;
\ maximize z: sum <i,j> in rows * cols: c[i,j] * x[i,j];
\ subto c1:     forall <i> in rows:         sum <j> in cols: x[i,j] <= 1;
\ subto c2:     forall <j> in cols:         sum <i> in rows: a[i,j] * x[i,j] <= b[j];
\Problem name: gap.zpl
Maximize
 z:  +6 x#1#1 +10 x#1#2 + x#1#3 +12 x#2#1 +12 x#2#2 +5 x#2#3
  +15 x#3#1 +4 x#3#2 +3 x#3#3 +10 x#4#1 +3 x#4#2 +9 x#4#3
  +8 x#5#1 +9 x#5#2 +5 x#5#3
Subject to
 c1_1:
  + x#1#3 + x#1#2 + x#1#1 <= 1
 c1_2:
  + x#2#3 + x#2#2 + x#2#1 <= 1
 c1_3:
  + x#3#3 + x#3#2 + x#3#1 <= 1
 c1_4:
  + x#4#3 + x#4#2 + x#4#1 <= 1
 c1_5:
  + x#5#3 + x#5#2 + x#5#1 <= 1
 c2_1:
  +6 x#5#1 +8 x#4#1 +10 x#3#1 +14 x#2#1 +5 x#1#1 <= 15
 c2_2:
  +12 x#5#2 +4 x#4#2 +6 x#3#2 +8 x#2#2 +7 x#1#2 <= 15
 c2_3:
  +5 x#5#3 +15 x#4#3 +12 x#3#3 +7 x#2#3 +2 x#1#3 <= 15
Bounds
 0 <= x#1#1 <= 1
 0 <= x#1#2 <= 1
 0 <= x#1#3 <= 1
 0 <= x#2#1 <= 1
 0 <= x#2#2 <= 1
 0 <= x#2#3 <= 1
 0 <= x#3#1 <= 1
 0 <= x#3#2 <= 1
 0 <= x#3#3 <= 1
 0 <= x#4#1 <= 1
 0 <= x#4#2 <= 1
 0 <= x#4#3 <= 1
 0 <= x#5#1 <= 1
 0 <= x#5#2 <= 1
 0 <= x#5#3 <= 1
General
 x#1#1
 x#1#2
 x#1#3
 x#2#1
 x#2#2
 x#2#3
 x#3#1
 x#3#2
 x#3#3
 x#4#1
 x#4#2
 x#4#3
 x#5#1
 x#5#2
 x#5#3
End
